db/inputs/2952530921281174711634127572847110159.smt2
(set-logic QF_FP)
(declare-const x0 (_ FloatingPoint 11 53))
(declare-const x1 (_ FloatingPoint 11 53))
(declare-const x2 (_ FloatingPoint 11 53))
(declare-const x3 (_ FloatingPoint 11 53))
(declare-const x4 (_ FloatingPoint 11 53))
(declare-const x5 (_ FloatingPoint 11 53))
(declare-const x6 (_ FloatingPoint 11 53))
(declare-const x7 (_ FloatingPoint 11 53))
(declare-const x8 (_ FloatingPoint 11 53))
(declare-const x9 (_ FloatingPoint 11 53))
(declare-const x10 (_ FloatingPoint 11 53))
(declare-const x11 (_ FloatingPoint 11 53))
(declare-const x12 (_ FloatingPoint 11 53))
(declare-const x13 (_ FloatingPoint 11 53))
(declare-const x14 (_ FloatingPoint 11 53))
(declare-const x15 (_ FloatingPoint 11 53))
(declare-const x16 (_ FloatingPoint 11 53))
(declare-const x17 (_ FloatingPoint 11 53))
(declare-const x18 (_ FloatingPoint 11 53))
(assert (fp.leq (fp.sub RNE (fp.sub RNE x14 x13) (fp.add RNE x10 x17)) (fp.sub RNE (fp.neg x5) (fp.neg x0))))
(assert (fp.leq (fp.add RNE (fp.div RNE x10 x16) (fp.sub RNE x6 x0)) (fp.sub RNE (fp.neg x8) (fp.div RNE x7 x7))))
(assert (fp.eq (fp.div RNE (fp.neg x11) (fp.sub RNE x16 x0)) (fp.neg (fp.div RNE x13 x16))))
(check-sat)
