db/data/2952530921281174711634127572847110159.z3.out
sat
-------------------
406.819990482
